predicate fzn_all_different_int(array [int] of var int: x);
var 1..32: X_INTRODUCED_0_;
var 1..32: X_INTRODUCED_1_;
var 1..32: X_INTRODUCED_2_;
var 1..32: X_INTRODUCED_3_;
var 1..32: X_INTRODUCED_4_;
var 1..32: X_INTRODUCED_5_;
var 1..32: X_INTRODUCED_6_;
var 1..32: X_INTRODUCED_7_;
var 1..32: X_INTRODUCED_8_;
var 1..32: X_INTRODUCED_9_;
var 1..32: X_INTRODUCED_10_;
var 1..32: X_INTRODUCED_11_;
var 1..32: X_INTRODUCED_12_;
var 1..32: X_INTRODUCED_13_;
var 1..32: X_INTRODUCED_14_;
var 1..32: X_INTRODUCED_15_;
var 1..32: X_INTRODUCED_16_;
var 1..32: X_INTRODUCED_17_;
var 1..32: X_INTRODUCED_18_;
var 1..32: X_INTRODUCED_19_;
var 1..32: X_INTRODUCED_20_;
var 1..32: X_INTRODUCED_21_;
var 1..32: X_INTRODUCED_22_;
var 1..32: X_INTRODUCED_23_;
var 1..32: X_INTRODUCED_24_;
var 1..32: X_INTRODUCED_25_;
var 1..32: X_INTRODUCED_26_;
var 1..32: X_INTRODUCED_27_;
var 1..32: X_INTRODUCED_28_;
var 1..32: X_INTRODUCED_29_;
var 1..32: X_INTRODUCED_30_;
var 1..32: X_INTRODUCED_31_;
var 2..33: X_INTRODUCED_33_ ::var_is_introduced :: is_defined_var;
var 3..34: X_INTRODUCED_34_ ::var_is_introduced :: is_defined_var;
var 4..35: X_INTRODUCED_35_ ::var_is_introduced :: is_defined_var;
var 5..36: X_INTRODUCED_36_ ::var_is_introduced :: is_defined_var;
var 6..37: X_INTRODUCED_37_ ::var_is_introduced :: is_defined_var;
var 7..38: X_INTRODUCED_38_ ::var_is_introduced :: is_defined_var;
var 8..39: X_INTRODUCED_39_ ::var_is_introduced :: is_defined_var;
var 9..40: X_INTRODUCED_40_ ::var_is_introduced :: is_defined_var;
var 10..41: X_INTRODUCED_41_ ::var_is_introduced :: is_defined_var;
var 11..42: X_INTRODUCED_42_ ::var_is_introduced :: is_defined_var;
var 12..43: X_INTRODUCED_43_ ::var_is_introduced :: is_defined_var;
var 13..44: X_INTRODUCED_44_ ::var_is_introduced :: is_defined_var;
var 14..45: X_INTRODUCED_45_ ::var_is_introduced :: is_defined_var;
var 15..46: X_INTRODUCED_46_ ::var_is_introduced :: is_defined_var;
var 16..47: X_INTRODUCED_47_ ::var_is_introduced :: is_defined_var;
var 17..48: X_INTRODUCED_48_ ::var_is_introduced :: is_defined_var;
var 18..49: X_INTRODUCED_49_ ::var_is_introduced :: is_defined_var;
var 19..50: X_INTRODUCED_50_ ::var_is_introduced :: is_defined_var;
var 20..51: X_INTRODUCED_51_ ::var_is_introduced :: is_defined_var;
var 21..52: X_INTRODUCED_52_ ::var_is_introduced :: is_defined_var;
var 22..53: X_INTRODUCED_53_ ::var_is_introduced :: is_defined_var;
var 23..54: X_INTRODUCED_54_ ::var_is_introduced :: is_defined_var;
var 24..55: X_INTRODUCED_55_ ::var_is_introduced :: is_defined_var;
var 25..56: X_INTRODUCED_56_ ::var_is_introduced :: is_defined_var;
var 26..57: X_INTRODUCED_57_ ::var_is_introduced :: is_defined_var;
var 27..58: X_INTRODUCED_58_ ::var_is_introduced :: is_defined_var;
var 28..59: X_INTRODUCED_59_ ::var_is_introduced :: is_defined_var;
var 29..60: X_INTRODUCED_60_ ::var_is_introduced :: is_defined_var;
var 30..61: X_INTRODUCED_61_ ::var_is_introduced :: is_defined_var;
var 31..62: X_INTRODUCED_62_ ::var_is_introduced :: is_defined_var;
var 32..63: X_INTRODUCED_63_ ::var_is_introduced :: is_defined_var;
var 33..64: X_INTRODUCED_64_ ::var_is_introduced :: is_defined_var;
var 0..31: X_INTRODUCED_66_ ::var_is_introduced :: is_defined_var;
var -1..30: X_INTRODUCED_67_ ::var_is_introduced :: is_defined_var;
var -2..29: X_INTRODUCED_68_ ::var_is_introduced :: is_defined_var;
var -3..28: X_INTRODUCED_69_ ::var_is_introduced :: is_defined_var;
var -4..27: X_INTRODUCED_70_ ::var_is_introduced :: is_defined_var;
var -5..26: X_INTRODUCED_71_ ::var_is_introduced :: is_defined_var;
var -6..25: X_INTRODUCED_72_ ::var_is_introduced :: is_defined_var;
var -7..24: X_INTRODUCED_73_ ::var_is_introduced :: is_defined_var;
var -8..23: X_INTRODUCED_74_ ::var_is_introduced :: is_defined_var;
var -9..22: X_INTRODUCED_75_ ::var_is_introduced :: is_defined_var;
var -10..21: X_INTRODUCED_76_ ::var_is_introduced :: is_defined_var;
var -11..20: X_INTRODUCED_77_ ::var_is_introduced :: is_defined_var;
var -12..19: X_INTRODUCED_78_ ::var_is_introduced :: is_defined_var;
var -13..18: X_INTRODUCED_79_ ::var_is_introduced :: is_defined_var;
var -14..17: X_INTRODUCED_80_ ::var_is_introduced :: is_defined_var;
var -15..16: X_INTRODUCED_81_ ::var_is_introduced :: is_defined_var;
var -16..15: X_INTRODUCED_82_ ::var_is_introduced :: is_defined_var;
var -17..14: X_INTRODUCED_83_ ::var_is_introduced :: is_defined_var;
var -18..13: X_INTRODUCED_84_ ::var_is_introduced :: is_defined_var;
var -19..12: X_INTRODUCED_85_ ::var_is_introduced :: is_defined_var;
var -20..11: X_INTRODUCED_86_ ::var_is_introduced :: is_defined_var;
var -21..10: X_INTRODUCED_87_ ::var_is_introduced :: is_defined_var;
var -22..9: X_INTRODUCED_88_ ::var_is_introduced :: is_defined_var;
var -23..8: X_INTRODUCED_89_ ::var_is_introduced :: is_defined_var;
var -24..7: X_INTRODUCED_90_ ::var_is_introduced :: is_defined_var;
var -25..6: X_INTRODUCED_91_ ::var_is_introduced :: is_defined_var;
var -26..5: X_INTRODUCED_92_ ::var_is_introduced :: is_defined_var;
var -27..4: X_INTRODUCED_93_ ::var_is_introduced :: is_defined_var;
var -28..3: X_INTRODUCED_94_ ::var_is_introduced :: is_defined_var;
var -29..2: X_INTRODUCED_95_ ::var_is_introduced :: is_defined_var;
var -30..1: X_INTRODUCED_96_ ::var_is_introduced :: is_defined_var;
var -31..0: X_INTRODUCED_97_ ::var_is_introduced :: is_defined_var;
array [1..32] of var int: q:: output_array([1..32]) = [X_INTRODUCED_0_,X_INTRODUCED_1_,X_INTRODUCED_2_,X_INTRODUCED_3_,X_INTRODUCED_4_,X_INTRODUCED_5_,X_INTRODUCED_6_,X_INTRODUCED_7_,X_INTRODUCED_8_,X_INTRODUCED_9_,X_INTRODUCED_10_,X_INTRODUCED_11_,X_INTRODUCED_12_,X_INTRODUCED_13_,X_INTRODUCED_14_,X_INTRODUCED_15_,X_INTRODUCED_16_,X_INTRODUCED_17_,X_INTRODUCED_18_,X_INTRODUCED_19_,X_INTRODUCED_20_,X_INTRODUCED_21_,X_INTRODUCED_22_,X_INTRODUCED_23_,X_INTRODUCED_24_,X_INTRODUCED_25_,X_INTRODUCED_26_,X_INTRODUCED_27_,X_INTRODUCED_28_,X_INTRODUCED_29_,X_INTRODUCED_30_,X_INTRODUCED_31_];
array [1..32] of var int: X_INTRODUCED_65_ ::var_is_introduced  = [X_INTRODUCED_33_,X_INTRODUCED_34_,X_INTRODUCED_35_,X_INTRODUCED_36_,X_INTRODUCED_37_,X_INTRODUCED_38_,X_INTRODUCED_39_,X_INTRODUCED_40_,X_INTRODUCED_41_,X_INTRODUCED_42_,X_INTRODUCED_43_,X_INTRODUCED_44_,X_INTRODUCED_45_,X_INTRODUCED_46_,X_INTRODUCED_47_,X_INTRODUCED_48_,X_INTRODUCED_49_,X_INTRODUCED_50_,X_INTRODUCED_51_,X_INTRODUCED_52_,X_INTRODUCED_53_,X_INTRODUCED_54_,X_INTRODUCED_55_,X_INTRODUCED_56_,X_INTRODUCED_57_,X_INTRODUCED_58_,X_INTRODUCED_59_,X_INTRODUCED_60_,X_INTRODUCED_61_,X_INTRODUCED_62_,X_INTRODUCED_63_,X_INTRODUCED_64_];
array [1..32] of var int: X_INTRODUCED_98_ ::var_is_introduced  = [X_INTRODUCED_66_,X_INTRODUCED_67_,X_INTRODUCED_68_,X_INTRODUCED_69_,X_INTRODUCED_70_,X_INTRODUCED_71_,X_INTRODUCED_72_,X_INTRODUCED_73_,X_INTRODUCED_74_,X_INTRODUCED_75_,X_INTRODUCED_76_,X_INTRODUCED_77_,X_INTRODUCED_78_,X_INTRODUCED_79_,X_INTRODUCED_80_,X_INTRODUCED_81_,X_INTRODUCED_82_,X_INTRODUCED_83_,X_INTRODUCED_84_,X_INTRODUCED_85_,X_INTRODUCED_86_,X_INTRODUCED_87_,X_INTRODUCED_88_,X_INTRODUCED_89_,X_INTRODUCED_90_,X_INTRODUCED_91_,X_INTRODUCED_92_,X_INTRODUCED_93_,X_INTRODUCED_94_,X_INTRODUCED_95_,X_INTRODUCED_96_,X_INTRODUCED_97_];
constraint fzn_all_different_int(q);
constraint fzn_all_different_int(X_INTRODUCED_65_);
constraint fzn_all_different_int(X_INTRODUCED_98_);
constraint int_lin_eq([1,-1],[X_INTRODUCED_0_,X_INTRODUCED_33_],-1):: defines_var(X_INTRODUCED_33_);
constraint int_lin_eq([1,-1],[X_INTRODUCED_1_,X_INTRODUCED_34_],-2):: defines_var(X_INTRODUCED_34_);
constraint int_lin_eq([1,-1],[X_INTRODUCED_2_,X_INTRODUCED_35_],-3):: defines_var(X_INTRODUCED_35_);
constraint int_lin_eq([1,-1],[X_INTRODUCED_3_,X_INTRODUCED_36_],-4):: defines_var(X_INTRODUCED_36_);
constraint int_lin_eq([1,-1],[X_INTRODUCED_4_,X_INTRODUCED_37_],-5):: defines_var(X_INTRODUCED_37_);
constraint int_lin_eq([1,-1],[X_INTRODUCED_5_,X_INTRODUCED_38_],-6):: defines_var(X_INTRODUCED_38_);
constraint int_lin_eq([1,-1],[X_INTRODUCED_6_,X_INTRODUCED_39_],-7):: defines_var(X_INTRODUCED_39_);
constraint int_lin_eq([1,-1],[X_INTRODUCED_7_,X_INTRODUCED_40_],-8):: defines_var(X_INTRODUCED_40_);
constraint int_lin_eq([1,-1],[X_INTRODUCED_8_,X_INTRODUCED_41_],-9):: defines_var(X_INTRODUCED_41_);
constraint int_lin_eq([1,-1],[X_INTRODUCED_9_,X_INTRODUCED_42_],-10):: defines_var(X_INTRODUCED_42_);
constraint int_lin_eq([1,-1],[X_INTRODUCED_10_,X_INTRODUCED_43_],-11):: defines_var(X_INTRODUCED_43_);
constraint int_lin_eq([1,-1],[X_INTRODUCED_11_,X_INTRODUCED_44_],-12):: defines_var(X_INTRODUCED_44_);
constraint int_lin_eq([1,-1],[X_INTRODUCED_12_,X_INTRODUCED_45_],-13):: defines_var(X_INTRODUCED_45_);
constraint int_lin_eq([1,-1],[X_INTRODUCED_13_,X_INTRODUCED_46_],-14):: defines_var(X_INTRODUCED_46_);
constraint int_lin_eq([1,-1],[X_INTRODUCED_14_,X_INTRODUCED_47_],-15):: defines_var(X_INTRODUCED_47_);
constraint int_lin_eq([1,-1],[X_INTRODUCED_15_,X_INTRODUCED_48_],-16):: defines_var(X_INTRODUCED_48_);
constraint int_lin_eq([1,-1],[X_INTRODUCED_16_,X_INTRODUCED_49_],-17):: defines_var(X_INTRODUCED_49_);
constraint int_lin_eq([1,-1],[X_INTRODUCED_17_,X_INTRODUCED_50_],-18):: defines_var(X_INTRODUCED_50_);
constraint int_lin_eq([1,-1],[X_INTRODUCED_18_,X_INTRODUCED_51_],-19):: defines_var(X_INTRODUCED_51_);
constraint int_lin_eq([1,-1],[X_INTRODUCED_19_,X_INTRODUCED_52_],-20):: defines_var(X_INTRODUCED_52_);
constraint int_lin_eq([1,-1],[X_INTRODUCED_20_,X_INTRODUCED_53_],-21):: defines_var(X_INTRODUCED_53_);
constraint int_lin_eq([1,-1],[X_INTRODUCED_21_,X_INTRODUCED_54_],-22):: defines_var(X_INTRODUCED_54_);
constraint int_lin_eq([1,-1],[X_INTRODUCED_22_,X_INTRODUCED_55_],-23):: defines_var(X_INTRODUCED_55_);
constraint int_lin_eq([1,-1],[X_INTRODUCED_23_,X_INTRODUCED_56_],-24):: defines_var(X_INTRODUCED_56_);
constraint int_lin_eq([1,-1],[X_INTRODUCED_24_,X_INTRODUCED_57_],-25):: defines_var(X_INTRODUCED_57_);
constraint int_lin_eq([1,-1],[X_INTRODUCED_25_,X_INTRODUCED_58_],-26):: defines_var(X_INTRODUCED_58_);
constraint int_lin_eq([1,-1],[X_INTRODUCED_26_,X_INTRODUCED_59_],-27):: defines_var(X_INTRODUCED_59_);
constraint int_lin_eq([1,-1],[X_INTRODUCED_27_,X_INTRODUCED_60_],-28):: defines_var(X_INTRODUCED_60_);
constraint int_lin_eq([1,-1],[X_INTRODUCED_28_,X_INTRODUCED_61_],-29):: defines_var(X_INTRODUCED_61_);
constraint int_lin_eq([1,-1],[X_INTRODUCED_29_,X_INTRODUCED_62_],-30):: defines_var(X_INTRODUCED_62_);
constraint int_lin_eq([1,-1],[X_INTRODUCED_30_,X_INTRODUCED_63_],-31):: defines_var(X_INTRODUCED_63_);
constraint int_lin_eq([1,-1],[X_INTRODUCED_31_,X_INTRODUCED_64_],-32):: defines_var(X_INTRODUCED_64_);
constraint int_lin_eq([1,-1],[X_INTRODUCED_0_,X_INTRODUCED_66_],1):: defines_var(X_INTRODUCED_66_);
constraint int_lin_eq([1,-1],[X_INTRODUCED_1_,X_INTRODUCED_67_],2):: defines_var(X_INTRODUCED_67_);
constraint int_lin_eq([1,-1],[X_INTRODUCED_2_,X_INTRODUCED_68_],3):: defines_var(X_INTRODUCED_68_);
constraint int_lin_eq([1,-1],[X_INTRODUCED_3_,X_INTRODUCED_69_],4):: defines_var(X_INTRODUCED_69_);
constraint int_lin_eq([1,-1],[X_INTRODUCED_4_,X_INTRODUCED_70_],5):: defines_var(X_INTRODUCED_70_);
constraint int_lin_eq([1,-1],[X_INTRODUCED_5_,X_INTRODUCED_71_],6):: defines_var(X_INTRODUCED_71_);
constraint int_lin_eq([1,-1],[X_INTRODUCED_6_,X_INTRODUCED_72_],7):: defines_var(X_INTRODUCED_72_);
constraint int_lin_eq([1,-1],[X_INTRODUCED_7_,X_INTRODUCED_73_],8):: defines_var(X_INTRODUCED_73_);
constraint int_lin_eq([1,-1],[X_INTRODUCED_8_,X_INTRODUCED_74_],9):: defines_var(X_INTRODUCED_74_);
constraint int_lin_eq([1,-1],[X_INTRODUCED_9_,X_INTRODUCED_75_],10):: defines_var(X_INTRODUCED_75_);
constraint int_lin_eq([1,-1],[X_INTRODUCED_10_,X_INTRODUCED_76_],11):: defines_var(X_INTRODUCED_76_);
constraint int_lin_eq([1,-1],[X_INTRODUCED_11_,X_INTRODUCED_77_],12):: defines_var(X_INTRODUCED_77_);
constraint int_lin_eq([1,-1],[X_INTRODUCED_12_,X_INTRODUCED_78_],13):: defines_var(X_INTRODUCED_78_);
constraint int_lin_eq([1,-1],[X_INTRODUCED_13_,X_INTRODUCED_79_],14):: defines_var(X_INTRODUCED_79_);
constraint int_lin_eq([1,-1],[X_INTRODUCED_14_,X_INTRODUCED_80_],15):: defines_var(X_INTRODUCED_80_);
constraint int_lin_eq([1,-1],[X_INTRODUCED_15_,X_INTRODUCED_81_],16):: defines_var(X_INTRODUCED_81_);
constraint int_lin_eq([1,-1],[X_INTRODUCED_16_,X_INTRODUCED_82_],17):: defines_var(X_INTRODUCED_82_);
constraint int_lin_eq([1,-1],[X_INTRODUCED_17_,X_INTRODUCED_83_],18):: defines_var(X_INTRODUCED_83_);
constraint int_lin_eq([1,-1],[X_INTRODUCED_18_,X_INTRODUCED_84_],19):: defines_var(X_INTRODUCED_84_);
constraint int_lin_eq([1,-1],[X_INTRODUCED_19_,X_INTRODUCED_85_],20):: defines_var(X_INTRODUCED_85_);
constraint int_lin_eq([1,-1],[X_INTRODUCED_20_,X_INTRODUCED_86_],21):: defines_var(X_INTRODUCED_86_);
constraint int_lin_eq([1,-1],[X_INTRODUCED_21_,X_INTRODUCED_87_],22):: defines_var(X_INTRODUCED_87_);
constraint int_lin_eq([1,-1],[X_INTRODUCED_22_,X_INTRODUCED_88_],23):: defines_var(X_INTRODUCED_88_);
constraint int_lin_eq([1,-1],[X_INTRODUCED_23_,X_INTRODUCED_89_],24):: defines_var(X_INTRODUCED_89_);
constraint int_lin_eq([1,-1],[X_INTRODUCED_24_,X_INTRODUCED_90_],25):: defines_var(X_INTRODUCED_90_);
constraint int_lin_eq([1,-1],[X_INTRODUCED_25_,X_INTRODUCED_91_],26):: defines_var(X_INTRODUCED_91_);
constraint int_lin_eq([1,-1],[X_INTRODUCED_26_,X_INTRODUCED_92_],27):: defines_var(X_INTRODUCED_92_);
constraint int_lin_eq([1,-1],[X_INTRODUCED_27_,X_INTRODUCED_93_],28):: defines_var(X_INTRODUCED_93_);
constraint int_lin_eq([1,-1],[X_INTRODUCED_28_,X_INTRODUCED_94_],29):: defines_var(X_INTRODUCED_94_);
constraint int_lin_eq([1,-1],[X_INTRODUCED_29_,X_INTRODUCED_95_],30):: defines_var(X_INTRODUCED_95_);
constraint int_lin_eq([1,-1],[X_INTRODUCED_30_,X_INTRODUCED_96_],31):: defines_var(X_INTRODUCED_96_);
constraint int_lin_eq([1,-1],[X_INTRODUCED_31_,X_INTRODUCED_97_],32):: defines_var(X_INTRODUCED_97_);
solve  satisfy;
